JulietBench/Juliet_Based_Patch_Bench/linux/CWE-189-Numeric-Errors/CVE_2011_0521_cb26a24ee9706473f31d34cc259f4dcf45cd0644/Resultdvb_ca_ioctl_Snippet_patch1NEQ.smt2
; benchmark generated from python API
(set-info :status unknown)
(declare-fun R () (_ BitVec 32))
(declare-fun rdi () (_ BitVec 64))
(assert
 (let (($x82 (= (_ bv4294967274 32) R)))
 (let ((?x6 ((_ extract 31 0) rdi)))
 (let ((?x7 ((_ zero_extend 32) ?x6)))
 (let ((?x44 (bvlshr ?x7 (_ bv31 64))))
 (let ((?x49 ((_ extract 0 0) ?x44)))
 (let ((?x53 (bvand ?x49 (_ bv1 1))))
 (let (($x54 (and (distinct (_ bv0 1) ?x53) true)))
 (let (($x193 (and $x54 $x82)))
 (let (($x187 (= R ?x6)))
 (let (($x75 (= (_ bv0 1) ?x53)))
 (let (($x11 (bvsge (_ bv1 32) ?x6)))
 (let (($x192 (and $x11 $x75 $x187)))
 (let (($x40 (bvslt (_ bv1 32) ?x6)))
 (let (($x191 (and $x40 $x75 $x82)))
 (let (($x194 (or $x191 $x192 $x193)))
 (let (($x197 (not $x194)))
 (let (($x189 (and $x11 $x187)))
 (let (($x83 (and $x40 $x82)))
 (let (($x190 (or $x83 $x189)))
 (let (($x196 (not $x190)))
 (let (($x198 (and $x196 $x197)))
 (let (($x195 (and $x190 $x194)))
 (let (($x199 (or $x195 $x198)))
 (not $x199)))))))))))))))))))))))))
(check-sat)
